units lj
atom_style atomic
boundary p p p

read_data atoms/ln4000-rn4000-ld0.5-rd0.5.atoms

mass 1 1.0
mass 2 1.0

reset_timestep  0
timestep        0.001

pair_style lj/cut 3.0
pair_coeff 1 1 1.0 1.0 3.0
pair_coeff 1 2 1.05 0.9 3.0
pair_coeff 2 2 1.0 1.0 3.0

fix 1 all nvt temp 1.15 1.15 0.01

dump id all atom 1000 dump.melt/ln4000-rn4000-ld0.5-rd0.5-T1.15.dump

run 200000