units lj
atom_style atomic
boundary p p p

read_data atoms/ln42592-rn42592-ld0.6655-rd0.6655.atoms

mass 1 1.0
mass 2 1.0

reset_timestep  0
timestep        0.001

pair_style lj/cut 3.0
pair_coeff 1 1 1.0 1.0 3.0
pair_coeff 1 2 1.0 0.5 1.12246
pair_coeff 2 2 1.0 1.0 3.0

fix 1 all nvt temp 1.5 1.5 0.01

run 500000

dump id all atom 1000 dump.melt/ln42592-rn42592-ld0.6655-rd0.6655-T1.5.dump

run 5000