units lj
atom_style atomic
boundary p p p

read_data atoms/lna5324-lnb5324-lda0.6655-ldb0.6655.atoms

mass 1 1.0
mass 2 1.0

reset_timestep  0
timestep        0.001

pair_style lj/cut 3.0
pair_coeff 1 1 1.0 1.0 3.0
pair_coeff 1 2 1.05 0.9 3.0
pair_coeff 2 2 1.0 1.0 3.0

fix 1 all nvt temp 1.2 1.2 0.01

dump id all atom 1000 dump.melt/lna5324-lnb5324-lda0.6655-ldb0.6655-T1.2.dump

run 500000