units lj
atom_style atomic
boundary p p p

read_data atoms/lna5324-lnb5324-lda0.6655-ldb0.6655.atoms

mass 1 1.0
mass 2 1.0

reset_timestep  0
timestep        0.001

pair_style lj/cut 3.0
pair_coeff 1 1 1.0 1.0 3.0
pair_coeff 1 2 1.0 0.5 1.12246
pair_coeff 2 2 1.0 1.0 3.0

fix 1 all nvt temp 1.0 1.0 0.01

dump id all atom 1000 dump.melt/lnb5324-lna5324-lda0.6655-ldb0.6655-T1.0.dump

run 500000