units lj
atom_style atomic
boundary p p p

read_data atoms/lna31944-lnb10648-lda0.499125-ldb0.166375.atoms

mass 1 1.0
mass 2 1.0

reset_timestep  0
timestep        0.001

pair_style lj/cut 3.0
pair_coeff 1 1 1.0 1.0 3.0
pair_coeff 1 2 1.05 0.9 3.0
pair_coeff 2 2 1.15 1.0 3.0

fix 1 all nvt temp 0.7 0.7 0.01

run 200000

thermo 1000
thermo_style custom time temp press

run 5000