units lj
atom_style atomic
boundary p p p

read_data atoms/N44640/lna10648-lnb31944-lda0.166375-ldb0.499125-rna512-rnb1536-rda0.008-rdb0.024.atoms

mass 1 1.0
mass 2 1.0

reset_timestep  0
timestep        0.001

pair_style lj/cut 3.0
pair_coeff 1 1 1.0 1.0 3.0
pair_coeff 1 2 1.05 0.9 3.0
pair_coeff 2 2 1.0 1.0 3.0

fix 1 all nvt temp 0.9 0.9 0.01

run 500000

dump id all atom 1000 dump.melt/N44640/T0.9/lna10648-lnb31944-lda0.166375-ldb0.499125-rna512-rnb1536-rda0.008-rdb0.024.dump

run 5000