units lj
atom_style atomic
boundary p p p

read_data atoms/N44640/lna31944-lnb10648-lda0.499125-ldb0.166375-rna1536-rnb512-rda0.024-rdb0.008.atoms

mass 1 1.0
mass 2 1.0

reset_timestep  0
timestep        0.001

pair_style lj/cut 3.0
pair_coeff 1 1 1.0 1.0 3.0
pair_coeff 1 2 1.05 0.9 3.0
pair_coeff 2 2 1.0 1.0 3.0

fix 1 all nvt temp 0.9 0.9 0.01

run 500000

dump id all atom 1000 dump.melt/N44640/T0.9/lna31944-lnb10648-lda0.499125-ldb0.166375-rna1536-rnb512-rda0.024-rdb0.008.dump

run 5000