units lj
atom_style atomic
boundary p p p

read_data atoms/l0.8-r0.0.atoms

mass 1 1.0

reset_timestep  0
timestep        0.001

pair_style lj/cut 3.0
pair_coeff 1 1 1.0 1.0 3.0

fix 1 all nvt temp 0.9 0.9 0.01

thermo 1000
thermo_style custom time temp press

run 2000000