units lj
atom_style atomic
boundary p p p

read_data atoms/ln2916-rn0-ld0.0455625-rd0.0.atoms

mass 1 1.0

reset_timestep  0
timestep        0.001

pair_style lj/cut 3.0
pair_coeff 1 1 1.0 1.0 3.0

fix 1 all nvt temp 1.0 1.0 0.01

run 200000

thermo 100
thermo_style custom time temp press

dump id all atom 100 dump.melt/ln2916-rn0-ld0.0455625-rd0.0-T1.0.dump

run 5000