units lj
atom_style atomic
boundary p p p

read_data atoms/lna40462-lnb2130-lda0.63221875-ldb0.03328125.atoms

mass 1 1.0
mass 2 1.0

reset_timestep  0
timestep        0.001

pair_style lj/cut 3.0
pair_coeff 1 1 1.0 1.0 3.0
pair_coeff 1 2 1.05 0.9 3.0
pair_coeff 2 2 1.15 1.0 3.0

fix 1 all nvt temp 1.0 1.0 0.01

run 200000

dump id all atom 1000 dump.melt/T1.0/lna40462-lnb2130-lda0.63221875-ldb0.03328125.dump

run 5000